NAME : rnd5_50.tsp
TYPE : TSP
DIMENSION : 50
EDGE_WEIGHT_TYPE : EUC_2D
NODE_COORD_SECTION
1 844 279
2 309 598
3 980 137
4 671 24
5 755 239
6 391 229
7 900 518
8 594 978
9 31 980
10 831 684
11 286 451
12 618 503
13 435 640
14 992 292
15 745 754
16 935 285
17 529 263
18 530 380
19 674 614
20 337 406
21 611 733
22 536 6
23 118 277
24 922 407
25 532 382
26 498 830
27 218 736
28 2 717
29 640 712
30 984 545
31 950 37
32 594 119
33 930 443
34 732 606
35 586 652
36 746 62
37 346 199
38 854 594
39 684 39
40 543 650
41 638 396
42 983 377
43 253 710
44 219 270
45 187 484
46 153 797
47 851 885
48 71 359
49 507 65
50 957 445
